<number of tasks>
100

<cycle time>
1000

<order strength>
0.896


<task times>
1 66
2 73
3 103
4 565
5 482
6 177
7 53
8 118
9 468
10 75
11 216
12 572
13 177
14 334
15 117
16 224
17 253
18 394
19 185
20 414
21 179
22 180
23 68
24 181
25 179
26 54
27 601
28 584
29 26
30 233
31 78
32 69
33 263
34 194
35 313
36 571
37 334
38 126
39 265
40 96
41 34
42 99
43 153
44 245
45 179
46 564
47 289
48 465
49 492
50 59
51 35
52 188
53 248
54 533
55 90
56 513
57 278
58 100
59 55
60 89
61 70
62 149
63 136
64 317
65 352
66 260
67 316
68 258
69 362
70 483
71 529
72 114
73 72
74 393
75 244
76 44
77 102
78 180
79 184
80 101
81 181
82 514
83 137
84 126
85 411
86 477
87 95
88 456
89 443
90 203
91 561
92 314
93 232
94 107
95 108
96 121
97 342
98 77
99 590
100 82

<precedence relations>
1,8
2,25
2,26
2,27
2,28
3,6
3,7
3,8
3,9
4,6
4,7
4,8
4,9
5,6
5,7
5,8
5,9
6,10
7,10
8,10
9,10
10,11
10,12
11,13
11,14
11,15
12,13
12,14
12,15
13,16
13,17
13,18
14,16
14,17
14,18
15,16
15,17
15,18
16,19
16,20
16,21
16,22
16,23
16,24
17,19
17,20
17,21
17,22
17,23
17,24
18,19
18,20
18,21
18,22
18,23
18,24
19,25
20,25
20,28
21,25
21,26
22,27
23,25
23,26
23,28
24,25
24,26
24,27
25,29
25,30
25,31
25,32
26,29
26,30
26,33
26,35
26,36
27,29
27,30
27,31
27,32
28,29
28,32
29,34
30,55
30,56
31,33
31,34
31,35
31,36
32,33
32,34
33,39
33,40
34,37
34,38
34,39
35,37
35,38
35,40
36,37
36,39
37,44
37,45
37,46
37,47
38,41
38,42
38,43
39,41
39,42
39,43
40,41
40,42
40,43
41,44
41,45
41,46
41,47
42,44
42,45
42,46
42,47
43,44
43,45
43,46
43,47
44,48
44,49
45,48
45,49
46,48
46,49
47,48
48,50
49,51
50,52
50,54
51,52
51,53
52,83
52,84
52,85
53,55
54,55
54,56
55,57
55,58
55,59
55,60
55,63
56,57
56,58
56,59
56,60
56,61
57,71
57,72
57,76
58,62
58,72
60,62
60,64
61,63
62,65
62,66
63,67
64,65
64,66
64,72
65,70
66,69
67,68
67,70
68,71
68,72
68,73
68,74
69,71
69,74
69,75
70,71
70,73
71,96
72,75
72,83
73,76
74,77
74,81
74,89
75,78
75,79
76,80
76,81
77,79
78,84
78,85
79,82
80,84
81,82
81,83
81,85
81,96
82,92
83,86
83,94
83,95
84,87
84,88
85,86
86,92
87,90
87,91
87,92
88,89
89,95
89,96
91,94
91,95
91,99
92,93
93,98
93,99
94,98
95,97
95,100
96,99
96,100

<end>
